(set-logic QF_S)
(declare-fun var_0xINPUT_73206 () String)
(assert (and (= (len var_0xINPUT_73206) 0) (= (len var_0xINPUT_73206) 0) (not (= var_0xINPUT_73206 "Example:")) (not (= var_0xINPUT_73206 "CQALcCP5TB"))))
(check-sat var_0xINPUT_73206)